; benchmark generated from python API
(set-info :status unknown)
(declare-datatypes ((IntState 0)) (((Mk1 (val1 Int)) (Mk2 (val2 Int)))))
 (declare-fun c_main_~i~6 () Int)
(declare-fun c_main_~j~6 () Int)
(declare-fun c_main_~k~6 () Int)
(assert
 (let (($x87 (<= c_main_~i~6 3)))
 (let (($x144 (exists ((v_nnf_96_st IntState) (val!22 Int) )(let ((?x56 (val2 v_nnf_96_st)))
 (let (($x92 (<= ?x56 4)))
 (let (($x34 (and (<= (+ ?x56 2) c_main_~k~6) (<= c_main_~j~6 (+ (* 2 ?x56) 2)) $x92)))
 (let (($x52 (not (= v_nnf_96_st (Mk1 val!22)))))
 (and $x52 $x34))))))
 ))
 (let (($x45 (<= c_main_~j~6 (+ (* 2 c_main_~i~6) 2))))
 (let (($x61 (<= c_main_~i~6 4)))
 (let (($x67 (<= c_main_~j~6 (+ (* 2 c_main_~i~6) 1))))
 (let (($x71 (exists ((v_nnf_96 Int) )(let (($x31 (<= v_nnf_96 4)))
 (and (<= (+ v_nnf_96 2) c_main_~k~6) (<= c_main_~j~6 (+ (* 2 v_nnf_96) 2)) $x31)))
 ))
 (let (($x72 (<= c_main_~i~6 2)))
 (and (and $x67 $x61 $x72 $x71 $x87) (not (and $x67 $x61 $x45 $x144 $x87)))))))))))
(check-sat)
